Instance0
CPXPARAM_MIP_Cuts_Disjunctive-LiftProj:Disjunctive 0
CPXPARAM_MIP_Cuts_Disjunctive-LiftProj:LiftProj 0
Instance1
CPXPARAM_MIP_Cuts_Disjunctive-LiftProj:Disjunctive 0
CPXPARAM_MIP_Cuts_Disjunctive-LiftProj:LiftProj 0
Instance2
CPXPARAM_MIP_Cuts_Disjunctive-LiftProj:Disjunctive 0
CPXPARAM_MIP_Cuts_Disjunctive-LiftProj:LiftProj 0
Instance3
CPXPARAM_MIP_Cuts_Disjunctive-LiftProj:Disjunctive 0
CPXPARAM_MIP_Cuts_Disjunctive-LiftProj:LiftProj 0
Instance4
CPXPARAM_MIP_Cuts_Disjunctive-LiftProj:Disjunctive 0
CPXPARAM_MIP_Cuts_Disjunctive-LiftProj:LiftProj 0
Instance5
CPXPARAM_MIP_Cuts_Disjunctive-LiftProj:Disjunctive 0
CPXPARAM_MIP_Cuts_Disjunctive-LiftProj:LiftProj 0
Instance6
CPXPARAM_MIP_Cuts_Disjunctive-LiftProj:Disjunctive 0
CPXPARAM_MIP_Cuts_Disjunctive-LiftProj:LiftProj 0
Instance7
CPXPARAM_MIP_Cuts_Disjunctive-LiftProj:Disjunctive 0
CPXPARAM_MIP_Cuts_Disjunctive-LiftProj:LiftProj 0
Instance8
CPXPARAM_MIP_Cuts_Disjunctive-LiftProj:Disjunctive 0
CPXPARAM_MIP_Cuts_Disjunctive-LiftProj:LiftProj 0
Instance9
CPXPARAM_MIP_Cuts_Disjunctive-LiftProj:Disjunctive 0
CPXPARAM_MIP_Cuts_Disjunctive-LiftProj:LiftProj 0
Instance10
CPXPARAM_MIP_Cuts_Disjunctive-LiftProj:Disjunctive 0
CPXPARAM_MIP_Cuts_Disjunctive-LiftProj:LiftProj 0
Instance11
CPXPARAM_MIP_Cuts_Disjunctive-LiftProj:Disjunctive 0
CPXPARAM_MIP_Cuts_Disjunctive-LiftProj:LiftProj 0
Instance12
CPXPARAM_MIP_Cuts_Disjunctive-LiftProj:Disjunctive 0
CPXPARAM_MIP_Cuts_Disjunctive-LiftProj:LiftProj 0
Instance13
CPXPARAM_MIP_Cuts_Disjunctive-LiftProj:Disjunctive 0
CPXPARAM_MIP_Cuts_Disjunctive-LiftProj:LiftProj 0
Instance14
CPXPARAM_MIP_Cuts_Disjunctive-LiftProj:Disjunctive 0
CPXPARAM_MIP_Cuts_Disjunctive-LiftProj:LiftProj 0
Instance15
CPXPARAM_MIP_Cuts_Disjunctive-LiftProj:Disjunctive 0
CPXPARAM_MIP_Cuts_Disjunctive-LiftProj:LiftProj 0
Instance16
CPXPARAM_MIP_Cuts_Disjunctive-LiftProj:Disjunctive 0
CPXPARAM_MIP_Cuts_Disjunctive-LiftProj:LiftProj 0
Instance17
CPXPARAM_MIP_Cuts_Disjunctive-LiftProj:Disjunctive 0
CPXPARAM_MIP_Cuts_Disjunctive-LiftProj:LiftProj 0
Instance18
CPXPARAM_MIP_Cuts_Disjunctive-LiftProj:Disjunctive 0
CPXPARAM_MIP_Cuts_Disjunctive-LiftProj:LiftProj 0
Instance19
CPXPARAM_MIP_Cuts_Disjunctive-LiftProj:Disjunctive 0
CPXPARAM_MIP_Cuts_Disjunctive-LiftProj:LiftProj 0
Instance20
CPXPARAM_MIP_Cuts_Disjunctive-LiftProj:Disjunctive 0
CPXPARAM_MIP_Cuts_Disjunctive-LiftProj:LiftProj 0
Instance21
CPXPARAM_MIP_Cuts_Disjunctive-LiftProj:Disjunctive 0
CPXPARAM_MIP_Cuts_Disjunctive-LiftProj:LiftProj 0
Instance22
CPXPARAM_MIP_Cuts_Disjunctive-LiftProj:Disjunctive 0
CPXPARAM_MIP_Cuts_Disjunctive-LiftProj:LiftProj 0
Instance23
CPXPARAM_MIP_Cuts_Disjunctive-LiftProj:Disjunctive 0
CPXPARAM_MIP_Cuts_Disjunctive-LiftProj:LiftProj 0
Instance24
CPXPARAM_MIP_Cuts_Disjunctive-LiftProj:Disjunctive 0
CPXPARAM_MIP_Cuts_Disjunctive-LiftProj:LiftProj 0
Instance25
CPXPARAM_MIP_Cuts_Disjunctive-LiftProj:Disjunctive 0
CPXPARAM_MIP_Cuts_Disjunctive-LiftProj:LiftProj 0
Instance26
CPXPARAM_MIP_Cuts_Disjunctive-LiftProj:Disjunctive 0
CPXPARAM_MIP_Cuts_Disjunctive-LiftProj:LiftProj 0
Instance27
CPXPARAM_MIP_Cuts_Disjunctive-LiftProj:Disjunctive 0
CPXPARAM_MIP_Cuts_Disjunctive-LiftProj:LiftProj 0
Instance28
CPXPARAM_MIP_Cuts_Disjunctive-LiftProj:Disjunctive 0
CPXPARAM_MIP_Cuts_Disjunctive-LiftProj:LiftProj 0
Instance29
CPXPARAM_MIP_Cuts_Disjunctive-LiftProj:Disjunctive 0
CPXPARAM_MIP_Cuts_Disjunctive-LiftProj:LiftProj 0
Instance30
CPXPARAM_MIP_Cuts_Disjunctive-LiftProj:Disjunctive 0
CPXPARAM_MIP_Cuts_Disjunctive-LiftProj:LiftProj 0
Instance31
CPXPARAM_MIP_Cuts_Disjunctive-LiftProj:Disjunctive 0
CPXPARAM_MIP_Cuts_Disjunctive-LiftProj:LiftProj 0
Instance32
CPXPARAM_MIP_Cuts_Disjunctive-LiftProj:Disjunctive 0
CPXPARAM_MIP_Cuts_Disjunctive-LiftProj:LiftProj 0
Instance33
CPXPARAM_MIP_Cuts_Disjunctive-LiftProj:Disjunctive 0
CPXPARAM_MIP_Cuts_Disjunctive-LiftProj:LiftProj 0
Instance34
CPXPARAM_MIP_Cuts_Disjunctive-LiftProj:Disjunctive 0
CPXPARAM_MIP_Cuts_Disjunctive-LiftProj:LiftProj 0
Instance35
CPXPARAM_MIP_Cuts_Disjunctive-LiftProj:Disjunctive 0
CPXPARAM_MIP_Cuts_Disjunctive-LiftProj:LiftProj 0
Instance36
CPXPARAM_MIP_Cuts_Disjunctive-LiftProj:Disjunctive 0
CPXPARAM_MIP_Cuts_Disjunctive-LiftProj:LiftProj 0
Instance37
CPXPARAM_MIP_Cuts_Disjunctive-LiftProj:Disjunctive 0
CPXPARAM_MIP_Cuts_Disjunctive-LiftProj:LiftProj 0
Instance38
CPXPARAM_MIP_Cuts_Disjunctive-LiftProj:Disjunctive 0
CPXPARAM_MIP_Cuts_Disjunctive-LiftProj:LiftProj 0
Instance39
CPXPARAM_MIP_Cuts_Disjunctive-LiftProj:Disjunctive 0
CPXPARAM_MIP_Cuts_Disjunctive-LiftProj:LiftProj 0
Instance40
CPXPARAM_MIP_Cuts_Disjunctive-LiftProj:Disjunctive 0
CPXPARAM_MIP_Cuts_Disjunctive-LiftProj:LiftProj 0
Instance41
CPXPARAM_MIP_Cuts_Disjunctive-LiftProj:Disjunctive 0
CPXPARAM_MIP_Cuts_Disjunctive-LiftProj:LiftProj 0
Instance42
CPXPARAM_MIP_Cuts_Disjunctive-LiftProj:Disjunctive 0
CPXPARAM_MIP_Cuts_Disjunctive-LiftProj:LiftProj 0
Instance43
CPXPARAM_MIP_Cuts_Disjunctive-LiftProj:Disjunctive 0
CPXPARAM_MIP_Cuts_Disjunctive-LiftProj:LiftProj 0
Instance44
CPXPARAM_MIP_Cuts_Disjunctive-LiftProj:Disjunctive 0
CPXPARAM_MIP_Cuts_Disjunctive-LiftProj:LiftProj 0
Instance45
CPXPARAM_MIP_Cuts_Disjunctive-LiftProj:Disjunctive 0
CPXPARAM_MIP_Cuts_Disjunctive-LiftProj:LiftProj 0
Instance46
CPXPARAM_MIP_Cuts_Disjunctive-LiftProj:Disjunctive 0
CPXPARAM_MIP_Cuts_Disjunctive-LiftProj:LiftProj 0
Instance47
CPXPARAM_MIP_Cuts_Disjunctive-LiftProj:Disjunctive 0
CPXPARAM_MIP_Cuts_Disjunctive-LiftProj:LiftProj 0
Instance48
CPXPARAM_MIP_Cuts_Disjunctive-LiftProj:Disjunctive 0
CPXPARAM_MIP_Cuts_Disjunctive-LiftProj:LiftProj 0
Instance49
CPXPARAM_MIP_Cuts_Disjunctive-LiftProj:Disjunctive 0
CPXPARAM_MIP_Cuts_Disjunctive-LiftProj:LiftProj 0
Instance50
CPXPARAM_MIP_Cuts_Disjunctive-LiftProj:Disjunctive 0
CPXPARAM_MIP_Cuts_Disjunctive-LiftProj:LiftProj 0
Instance51
CPXPARAM_MIP_Cuts_Disjunctive-LiftProj:Disjunctive 0
CPXPARAM_MIP_Cuts_Disjunctive-LiftProj:LiftProj 0
Instance52
CPXPARAM_MIP_Cuts_Disjunctive-LiftProj:Disjunctive 0
CPXPARAM_MIP_Cuts_Disjunctive-LiftProj:LiftProj 0
Instance53
CPXPARAM_MIP_Cuts_Disjunctive-LiftProj:Disjunctive 0
CPXPARAM_MIP_Cuts_Disjunctive-LiftProj:LiftProj 0
Instance54
CPXPARAM_MIP_Cuts_Disjunctive-LiftProj:Disjunctive 0
CPXPARAM_MIP_Cuts_Disjunctive-LiftProj:LiftProj 0
Instance55
CPXPARAM_MIP_Cuts_Disjunctive-LiftProj:Disjunctive 0
CPXPARAM_MIP_Cuts_Disjunctive-LiftProj:LiftProj 0
Instance56
CPXPARAM_MIP_Cuts_Disjunctive-LiftProj:Disjunctive 0
CPXPARAM_MIP_Cuts_Disjunctive-LiftProj:LiftProj 0
Instance57
CPXPARAM_MIP_Cuts_Disjunctive-LiftProj:Disjunctive 0
CPXPARAM_MIP_Cuts_Disjunctive-LiftProj:LiftProj 0
Instance58
CPXPARAM_MIP_Cuts_Disjunctive-LiftProj:Disjunctive 0
CPXPARAM_MIP_Cuts_Disjunctive-LiftProj:LiftProj 0
Instance59
CPXPARAM_MIP_Cuts_Disjunctive-LiftProj:Disjunctive 0
CPXPARAM_MIP_Cuts_Disjunctive-LiftProj:LiftProj 0
Instance60
CPXPARAM_MIP_Cuts_Disjunctive-LiftProj:Disjunctive 0
CPXPARAM_MIP_Cuts_Disjunctive-LiftProj:LiftProj 0
Instance61
CPXPARAM_MIP_Cuts_Disjunctive-LiftProj:Disjunctive 0
CPXPARAM_MIP_Cuts_Disjunctive-LiftProj:LiftProj 0
Instance62
CPXPARAM_MIP_Cuts_Disjunctive-LiftProj:Disjunctive 0
CPXPARAM_MIP_Cuts_Disjunctive-LiftProj:LiftProj 0
Instance63
CPXPARAM_MIP_Cuts_Disjunctive-LiftProj:Disjunctive 0
CPXPARAM_MIP_Cuts_Disjunctive-LiftProj:LiftProj 0
Instance64
CPXPARAM_MIP_Cuts_Disjunctive-LiftProj:Disjunctive 0
CPXPARAM_MIP_Cuts_Disjunctive-LiftProj:LiftProj 0
Instance65
CPXPARAM_MIP_Cuts_Disjunctive-LiftProj:Disjunctive 0
CPXPARAM_MIP_Cuts_Disjunctive-LiftProj:LiftProj 0
Instance66
CPXPARAM_MIP_Cuts_Disjunctive-LiftProj:Disjunctive 0
CPXPARAM_MIP_Cuts_Disjunctive-LiftProj:LiftProj 0
Instance67
CPXPARAM_MIP_Cuts_Disjunctive-LiftProj:Disjunctive 0
CPXPARAM_MIP_Cuts_Disjunctive-LiftProj:LiftProj 0
Instance68
CPXPARAM_MIP_Cuts_Disjunctive-LiftProj:Disjunctive 0
CPXPARAM_MIP_Cuts_Disjunctive-LiftProj:LiftProj 0
Instance69
CPXPARAM_MIP_Cuts_Disjunctive-LiftProj:Disjunctive 0
CPXPARAM_MIP_Cuts_Disjunctive-LiftProj:LiftProj 0
Instance70
CPXPARAM_MIP_Cuts_Disjunctive-LiftProj:Disjunctive 0
CPXPARAM_MIP_Cuts_Disjunctive-LiftProj:LiftProj 0
Instance71
CPXPARAM_MIP_Cuts_Disjunctive-LiftProj:Disjunctive 0
CPXPARAM_MIP_Cuts_Disjunctive-LiftProj:LiftProj 0
Instance72
CPXPARAM_MIP_Cuts_Disjunctive-LiftProj:Disjunctive 0
CPXPARAM_MIP_Cuts_Disjunctive-LiftProj:LiftProj 0
Instance73
CPXPARAM_MIP_Cuts_Disjunctive-LiftProj:Disjunctive 0
CPXPARAM_MIP_Cuts_Disjunctive-LiftProj:LiftProj 0
Instance74
CPXPARAM_MIP_Cuts_Disjunctive-LiftProj:Disjunctive 0
CPXPARAM_MIP_Cuts_Disjunctive-LiftProj:LiftProj 0
Instance75
CPXPARAM_MIP_Cuts_Disjunctive-LiftProj:Disjunctive 0
CPXPARAM_MIP_Cuts_Disjunctive-LiftProj:LiftProj 0
Instance76
CPXPARAM_MIP_Cuts_Disjunctive-LiftProj:Disjunctive 0
CPXPARAM_MIP_Cuts_Disjunctive-LiftProj:LiftProj 0
Instance77
CPXPARAM_MIP_Cuts_Disjunctive-LiftProj:Disjunctive 0
CPXPARAM_MIP_Cuts_Disjunctive-LiftProj:LiftProj 0
Instance78
CPXPARAM_MIP_Cuts_Disjunctive-LiftProj:Disjunctive 0
CPXPARAM_MIP_Cuts_Disjunctive-LiftProj:LiftProj 0
Instance79
CPXPARAM_MIP_Cuts_Disjunctive-LiftProj:Disjunctive 0
CPXPARAM_MIP_Cuts_Disjunctive-LiftProj:LiftProj 0
